decision_x1=[0,2];
decision_x2=[0,2];
decision_x3=[0,2];
decision_x4=[0,2];
decision_x5=[0,2];
decision_x6=[0,2];
random_y1=[0,2];
random_y2=[0,2];
constraint_x2_x1=[
0,0,8.4|
0,1,3.7|
0,2,2.4|
1,0,0.1|
1,1,8.9|
1,2,0.61|
2,0,7.1|
2,1,5.1|
2,2,5.4|
];
constraint_x3_x1=[
0,0,2.1|
0,1,2.2|
0,2,9.1|
1,0,4|
1,1,7.1|
1,2,0.49|
2,0,6.3|
2,1,1.3|
2,2,9.1|
];
constraint_x3_x2=[
0,0,5.9|
0,1,1.6|
0,2,9.2|
1,0,1.8|
1,1,5.9|
1,2,7.5|
2,0,4.5|
2,1,2.8|
2,2,6.6|
];
constraint_x4_x1=[
0,0,1.1|
0,1,7.3|
0,2,4.6|
1,0,9|
1,1,1|
1,2,7.4|
2,0,4.6|
2,1,4.5|
2,2,8|
];
constraint_x5_x2=[
0,0,4.1|
0,1,6|
0,2,8.9|
1,0,1.1|
1,1,9|
1,2,9|
2,0,3.4|
2,1,2.1|
2,2,5.5|
];
constraint_x6_x3=[
0,0,9.1|
0,1,4.1|
0,2,2.1|
1,0,2.7|
1,1,2.3|
1,2,2.2|
2,0,3.4|
2,1,3.9|
2,2,2.3|
];
constraint_x6_x4=[
0,0,0.056|
0,1,4.4|
0,2,4.6|
1,0,7.9|
1,1,5.5|
1,2,4.9|
2,0,6|
2,1,3.2|
2,2,9|
];
constraint_x6_x5=[
0,0,2.2|
0,1,5|
0,2,6|
1,0,9.1|
1,1,1.6|
1,2,0.9|
2,0,2.6|
2,1,5|
2,2,1.5|
];
constraint_x1_y1=[
0,0,0.9|
0,1,9.8|
0,2,0.2|
1,0,1.3|
1,1,0.78|
1,2,0.47|
2,0,9.8|
2,1,5.7|
2,2,2.6|
];
constraint_x2_y2=[
0,0,0.0034|
0,1,4.6|
0,2,3.3|
1,0,0.39|
1,1,3.4|
1,2,7.8|
2,0,9.4|
2,1,8.1|
2,2,3.4|
];
initial_distribution_y1=[0.25,0.33,0.42];
initial_distribution_y2=[0.26,0.4,0.34];
transition_y1=[
0.43,0.086,0.48|
0.092,0.77,0.14|
0.25,0.54,0.21|
];
transition_y2=[
0.3,0.28,0.42|
0.34,0.28,0.37|
0.31,0.3,0.39|
];
